
Gurobi 11.0.1 (win64) logging started Wed May 15 14:42:31 2024

Set parameter LogFile to value "output/solver_log9.txt"
Gurobi Optimizer version 11.0.1 build v11.0.1rc0 (win64 - Windows 11.0 (22631.2))

CPU model: 11th Gen Intel(R) Core(TM) i7-1165G7 @ 2.80GHz, instruction set [SSE2|AVX|AVX2|AVX512]
Thread count: 4 physical cores, 8 logical processors, using up to 8 threads

Optimize a model with 2200 rows, 427 columns and 40841 nonzeros
Model fingerprint: 0xbb36d9ee
Variable types: 248 continuous, 179 integer (179 binary)
Coefficient statistics:
  Matrix range     [4e-01, 1e+05]
  Objective range  [1e+00, 1e+02]
  Bounds range     [1e+00, 1e+00]
  RHS range        [1e-02, 1e+05]

User MIP start produced solution with objective 39807.6 (0.00s)
User MIP start produced solution with objective 39807.6 (0.01s)
Loaded user MIP start with objective 39807.6

Presolve removed 111 rows and 113 columns
Presolve time: 0.04s
Presolved: 2089 rows, 314 columns, 40102 nonzeros
Variable types: 235 continuous, 79 integer (78 binary)

Root relaxation: objective 4.236310e+04, 653 iterations, 0.04 seconds (0.07 work units)

    Nodes    |    Current Node    |     Objective Bounds      |     Work
 Expl Unexpl |  Obj  Depth IntInf | Incumbent    BestBd   Gap | It/Node Time

     0     0 42363.1017    0   13 39807.5795 42363.1017  6.42%     -    0s
     0     0 42196.1806    0   12 39807.5795 42196.1806  6.00%     -    0s
     0     0 40874.6891    0   12 39807.5795 40874.6891  2.68%     -    0s
     0     0 40357.0474    0    9 39807.5795 40357.0474  1.38%     -    0s
     0     0 40281.7325    0   10 39807.5795 40281.7325  1.19%     -    0s
     0     0 40281.7325    0   10 39807.5795 40281.7325  1.19%     -    0s
     0     0 39867.0878    0    8 39807.5795 39867.0878  0.15%     -    0s
     0     0 39864.2519    0    6 39807.5795 39864.2519  0.14%     -    0s
     0     0 39822.9732    0    6 39807.5795 39822.9732  0.04%     -    0s
H    0     0                    39811.104654 39822.9732  0.03%     -    0s
     0     0 39822.9732    0    6 39811.1047 39822.9732  0.03%     -    0s
     0     0 39822.5654    0    8 39811.1047 39822.5654  0.03%     -    0s
H    0     0                    39812.326958 39822.3353  0.03%     -    0s
     0     0 39822.3353    0    8 39812.3270 39822.3353  0.03%     -    0s
     0     0 39822.3353    0    9 39812.3270 39822.3353  0.03%     -    0s
     0     0 39822.1092    0    6 39812.3270 39822.1092  0.02%     -    0s

Cutting planes:
  Implied bound: 3
  MIR: 4
  RLT: 1
  Relax-and-lift: 2

Explored 1 nodes (2236 simplex iterations) in 0.63 seconds (0.82 work units)
Thread count was 8 (of 8 available processors)

Solution count 4: 39812.3 39812.3 39811.1 39807.6 

Optimal solution found (tolerance 1.00e-04)
Best objective 3.981232695762e+04, best bound 3.981375777973e+04, gap 0.0036%
